7 5 9 3 2 8 3 2 6 -1 
6 -1 6 7 5 7 8 5 6 -1 
-1 9 9 0 4 -1 7 9 8 -1 
2 4 2 -1 3 6 0 3 1 -1 
7 3 1 7 -1 -1 7 7 -1 -1 
7 2 5 8 2 7 5 2 2 -1 
7 -1 9 6 2 0 9 8 6 -1 
6 8 7 1 0 2 1 9 -1 -1 
7 5 6 1 8 4 9 1 9 -1 
4 3 0 -1 3 5 8 3 4 -1 
